 nServices = 5;
 nBuses = 10;
 nDrivers = 10;

 maxBuses = 8;
 BM = 30;
 CBM = 10;
 CEM = 13;

 st = [ 0 15 30 45 60 ];
 sdt = [ 25 25 25 25 25 ];
 sdd = [ 30 21 45 10 9 ];
 dem = [ 25 25 25 25 25 ];

 cap = [ 106 145 74 133 137 102 90 87 90 84 ];
 euros_min = [ 1.92 1.84 1.86 2.21 2.24 1.96 2.22 2.05 2.18 2.48 ];
 euros_km = [ 1.39 1.43 2.25 1.46 1.35 2.21 2.91 1.72 3.21 3.36 ];

 maxHours = [ 6 5 6 8 5 7 6 10 8 7 ];
